
Gurobi 12.0.2 (win64) logging started Wed Nov 26 14:33:20 2025

Set parameter LogFile to value "resultados DATA_1_n10m10b2d2\instancia_7_log.txt"
Set parameter TimeLimit to value 3600
Gurobi Optimizer version 12.0.2 build v12.0.2rc0 (win64 - Windows 10.0 (19045.2))

CPU model: Intel(R) Core(TM) i5-6300U CPU @ 2.40GHz, instruction set [SSE2|AVX|AVX2]
Thread count: 2 physical cores, 4 logical processors, using up to 4 threads

Non-default parameters:
TimeLimit  3600

Optimize a model with 522 rows, 2175 columns and 76434 nonzeros
Model fingerprint: 0x1e02ae08
Variable types: 0 continuous, 2175 integer (2175 binary)
Coefficient statistics:
  Matrix range     [1e+00, 1e+00]
  Objective range  [2e-02, 1e-01]
  Bounds range     [1e+00, 1e+00]
  RHS range        [1e+00, 2e+01]
Found heuristic solution: objective 0.7650000
Presolve removed 1 rows and 930 columns
Presolve time: 0.17s
Presolved: 521 rows, 1245 columns, 39496 nonzeros
Found heuristic solution: objective 0.7200000
Variable types: 0 continuous, 1245 integer (1245 binary)

Root relaxation: objective 9.980000e-01, 6287 iterations, 1.54 seconds (1.58 work units)

    Nodes    |    Current Node    |     Objective Bounds      |     Work
 Expl Unexpl |  Obj  Depth IntInf | Incumbent    BestBd   Gap | It/Node Time

     0     0    0.99800    0   40    0.76500    0.99800  30.5%     -    2s
H    0     0                       0.8360000    0.99800  19.4%     -    2s
H    0     0                       0.9680000    0.99800  3.10%     -    2s
H    0     0                       0.9840000    0.99800  1.42%     -    2s
H    0     0                       0.9920000    0.99800  0.60%     -    2s
     0     0    0.99800    0  171    0.99200    0.99800  0.60%     -    3s
     0     0    0.99800    0  133    0.99200    0.99800  0.60%     -    4s
     0     0    0.99800    0   99    0.99200    0.99800  0.60%     -    4s
     0     0    0.99800    0  137    0.99200    0.99800  0.60%     -    6s
     0     0    0.99800    0  268    0.99200    0.99800  0.60%     -    6s
     0     0    0.99800    0   45    0.99200    0.99800  0.60%     -    7s
     0     0    0.99800    0   45    0.99200    0.99800  0.60%     -    8s
     0     2    0.99800    0   45    0.99200    0.99800  0.60%     -    9s
     3     6    0.99800    2  360    0.99200    0.99800  0.60%  1635   10s
    42    31    0.99755   12  251    0.99200    0.99800  0.60%   575   16s
   176    58    0.99689   14  199    0.99200    0.99800  0.60%   390   20s
   271    77    0.99425   22  154    0.99200    0.99737  0.54%   408   25s
   485    54     cutoff    9         0.99200    0.99600  0.40%   333   30s

Cutting planes:
  Gomory: 8
  Clique: 14
  Zero half: 3

Explored 776 nodes (233303 simplex iterations) in 33.88 seconds (53.62 work units)
Thread count was 4 (of 4 available processors)

Solution count 6: 0.992 0.984 0.968 ... 0.72
No other solutions better than 0.992

Optimal solution found (tolerance 1.00e-04)
Best objective 9.920000000000e-01, best bound 9.920000000000e-01, gap 0.0000%
